NAME : amz1898.3140533_134533.tour
COMMENT : Cost = 3140533_134533
COMMENT : Found by LKH-AMZ [Keld Helsgaun] Sun May 11 13:32:46 2025
COMMENT : TW viol.: 0 #: 0
TYPE : TOUR
DIMENSION : 164
TOUR_SECTION
88
137
122
163
42
141
94
22
110
151
36
157
20
18
10
135
154
28
25
79
64
35
126
111
72
40
160
91
38
80
51
76
24
146
16
164
49
7
138
96
155
159
114
100
69
144
140
61
19
48
121
70
98
106
119
142
30
109
83
31
112
123
37
97
11
139
58
118
27
158
47
75
82
124
147
62
102
150
128
74
66
117
45
13
132
145
6
54
71
56
93
115
108
77
103
133
148
156
105
32
39
78
149
130
143
85
23
43
21
1
65
104
46
84
86
41
162
4
161
125
14
129
15
68
120
55
92
81
90
44
53
8
3
63
107
26
134
67
99
52
73
153
33
136
9
5
34
29
101
95
113
116
87
127
152
89
57
59
2
17
131
12
60
50
-1
EOF
